Instance name:    bar-n200-5
Authors:          PDPTW Solver
Date:             2025-11-21
Reference:        LNS with SA/RTR
Solution
Route 1 : 41 141 22 122 40 140 11 111 7 107 84 21 184 64 164 12 112 25 125 65 165 100 200 13 113 1 101 121 48 148 62 162 57 157 35 135
Route 2 : 47 147 42 142 74 174 85 185 33 6 106 10 110 8 108 59 159 29 90 190 129 51 151 133 14 37 114 137 31 131 28 53 153 39 139 128 67 167 45 145
Route 3 : 4 80 180 36 136 87 187 92 192 104 50 150 26 126 63 163 46 146 30 130 75 175 95 195 15 115 27 127 61 161 81 52 152 181 18 5 105 118 17 88 188 117 76 176
Route 4 : 49 149 89 189 94 194 78 82 182 9 109 72 56 156 71 172 178 91 191 77 83 183 177 171 55 155 32 132 98 198 16 116 73 173 2 60 160 102 99 199
Route 5 : 86 186 44 144 34 134 24 124 3 23 123 103 97 197 58 19 119 93 193 20 38 138 158 120 66 166 43 143 54 70 154 170 68 168 96 196 79 69 169 179
